Nb of jobs, Nb of Machines, Time seed, Machine seed, Upper bound, Lower bound
3,10,-1,-1,-1,-1
Times
88,77,54,63,2,52,41,27,38,33
24,89,57,75,30,46,45,33,97,98
18,64,49,95,87,73,3,55,48,80
Machines
8,6,3,5,4,2,7,9,10,1
7,2,3,10,6,8,4,5,9,1
5,10,1,2,8,9,6,4,7,3
